NAME: cum110.tsp
TYPE: TSP
COMMENT: User-generated TSP file
DIMENSION: 110
EDGE_WEIGHT_TYPE: EUC_2D
NODE_COORD_SECTION
1 53.0 3.0
2 20.0 85.0
3 10.0 16.0
4 74.0 51.0
5 90.0 6.0
6 68.0 6.0
7 33.0 84.0
8 64.0 11.0
9 43.0 43.0
10 50.0 68.0
11 50.0 100.0
12 56.0 50.0
13 55.0 71.0
14 91.0 8.0
15 55.0 100.0
16 18.0 21.0
17 35.0 88.0
18 97.0 50.0
19 61.0 34.0
20 14.0 21.0
21 74.0 81.0
22 49.0 48.0
23 99.0 49.0
24 5.0 94.0
25 8.0 38.0
26 60.0 30.0
27 67.0 35.0
28 8.0 72.0
29 15.0 4.0
30 40.0 91.0
31 14.0 42.0
32 21.0 81.0
33 56.0 75.0
34 39.0 25.0
35 13.0 83.0
36 91.0 15.0
37 48.0 4.0
38 18.0 76.0
39 60.0 21.0
40 39.0 23.0
41 3.0 85.0
42 20.0 37.0
43 20.0 6.0
44 95.0 55.0
45 26.0 48.0
46 9.0 55.0
47 96.0 72.0
48 57.0 12.0
49 27.0 14.0
50 57.0 14.0
51 83.0 46.0
52 11.0 36.0
53 88.0 58.0
54 75.0 20.0
55 29.0 21.0
56 18.0 40.0
57 33.0 78.0
58 54.0 83.0
59 25.0 58.0
60 46.0 10.0
61 41.0 50.0
62 98.0 82.0
63 53.0 17.0
64 95.0 86.0
65 82.0 24.0
66 37.0 37.0
67 47.0 61.0
68 50.0 98.0
69 16.0 51.0
70 74.0 100.0
71 82.0 86.0
72 8.0 65.0
73 86.0 67.0
74 6.0 6.0
75 22.0 38.0
76 43.0 23.0
77 37.0 64.0
78 86.0 13.0
79 80.0 94.0
80 92.0 70.0
81 27.0 11.0
82 93.0 38.0
83 77.0 97.0
84 27.0 86.0
85 64.0 30.0
86 38.0 6.0
87 87.0 71.0
88 45.0 67.0
89 67.0 56.0
90 49.0 39.0
91 7.0 51.0
92 68.0 93.0
93 95.0 14.0
94 88.0 32.0
95 92.0 48.0
96 82.0 94.0
97 21.0 81.0
98 6.0 89.0
99 14.0 86.0
100 60.0 2.0
101 89.0 90.0
102 76.0 2.0
103 39.0 56.0
104 25.0 64.0
105 64.0 49.0
106 99.0 98.0
107 41.0 32.0
108 52.0 91.0
109 25.0 19.0
110 97.0 85.0
EOF

